20	5
0	10	6	1	2	3	7	4	10	5	9	8
1	1	19
2	1	21
3	1	20
4	2	13	16
5	1	17
6	1	12
7	1	14
8	2	18	20
9	1	16
10	1	14
11	1	17
12	1	15
13	1	14
14	0
15	1	20
16	2	11	19
17	1	21
18	1	21
19	1	21
20	1	21
21	0
0	0	0	0	0	0	0
1	3	5	3	3	3	4
2	10	2	5	5	5	5
3	5	4	1	1	5	5
4	5	3	5	5	2	2
5	4	4	1	3	3	3
6	6	4	4	4	4	3
7	6	2	2	3	2	4
8	6	3	2	4	3	5
9	7	4	2	1	1	2
10	7	1	5	1	1	3
11	9	1	3	3	3	1
12	5	5	1	4	3	2
13	10	5	1	1	2	2
14	9	4	2	3	3	5
15	9	1	1	1	1	1
16	5	1	3	2	2	3
17	9	4	3	2	1	2
18	6	2	2	2	4	3
19	3	1	3	4	4	4
20	4	3	5	5	1	5
21	0	0	0	0	0	0
5	5	5	5	5
